nNurses = 178;
nHours = 29;
minHours = 8;
maxHours = 10;
maxConsec = 7;
maxPresence = 26;
demand = [12, 15, 18, 21, 19, 22, 23, 24, 23, 23, 26, 30, 26, 27, 22, 22, 26, 25, 23, 18, 15, 10, 9, 12, 11, 14, 11, 16, 19];
